(set-logic QF_NRA)
(declare-fun u () Real)
(declare-fun v () Real)
(declare-fun x () Real)
(declare-fun y () Real)
(declare-fun z () Real)
(assert (and (= (- x (* u v)) 0) (= (- y u) 0) (= (- z (* u u)) 0)))
(eliminate-quantifiers (exists u v))
(exit)
